python/teste/teste48
3 4
1 5 2 2 3 10 0 4
1 8 3 10 2 1 0 9
1 2 2 3 3 1 0 7
